util/graphs/graph_03.txt
0,6,9,5,1,3,5,4,0,7,4,9,1,1,3
6,0,7,2,8,9,1,7,9,8,0,5,6,6,2
9,7,0,2,4,2,7,9,2,0,0,2,4,4,9
5,2,2,0,9,9,1,7,3,1,8,4,8,6,3
1,8,4,9,0,2,9,8,9,3,8,6,7,8,0
3,9,2,9,2,0,9,1,3,6,7,0,5,3,0
5,1,7,1,9,9,0,6,1,8,4,8,8,3,2
4,7,9,7,8,1,6,0,3,5,3,3,9,7,1
0,9,2,3,9,3,1,3,0,6,1,4,2,4,6
7,8,0,1,3,6,8,5,6,0,4,3,5,7,9
4,0,0,8,8,7,4,3,1,4,0,1,5,7,3
9,5,2,4,6,0,8,3,4,3,1,0,7,6,8
1,6,4,8,7,5,8,9,2,5,5,7,0,3,9
1,6,4,6,8,3,3,7,4,7,7,6,3,0,2
3,2,9,3,0,0,2,1,6,9,3,8,9,2,0
