util/figs/graph_03
graph {
		0 -- 1 [label=6]
		0 -- 2 [label=9]
		0 -- 3 [label=5]
		0 -- 4 [label=1]
		0 -- 5 [label=3]
		0 -- 6 [label=5]
		0 -- 7 [label=4]
		0 -- 8 [label=0]
		0 -- 9 [label=7]
		0 -- 10 [label=4]
		0 -- 11 [label=9]
		0 -- 12 [label=1]
		0 -- 13 [label=1]
		0 -- 14 [label=3]
		1 -- 2 [label=7]
		1 -- 3 [label=2]
		1 -- 4 [label=8]
		1 -- 5 [label=9]
		1 -- 6 [label=1]
		1 -- 7 [label=7]
		1 -- 8 [label=9]
		1 -- 9 [label=8]
		1 -- 10 [label=0]
		1 -- 11 [label=5]
		1 -- 12 [label=6]
		1 -- 13 [label=6]
		1 -- 14 [label=2]
		2 -- 3 [label=2]
		2 -- 4 [label=4]
		2 -- 5 [label=2]
		2 -- 6 [label=7]
		2 -- 7 [label=9]
		2 -- 8 [label=2]
		2 -- 9 [label=0]
		2 -- 10 [label=0]
		2 -- 11 [label=2]
		2 -- 12 [label=4]
		2 -- 13 [label=4]
		2 -- 14 [label=9]
		3 -- 4 [label=9]
		3 -- 5 [label=9]
		3 -- 6 [label=1]
		3 -- 7 [label=7]
		3 -- 8 [label=3]
		3 -- 9 [label=1]
		3 -- 10 [label=8]
		3 -- 11 [label=4]
		3 -- 12 [label=8]
		3 -- 13 [label=6]
		3 -- 14 [label=3]
		4 -- 5 [label=2]
		4 -- 6 [label=9]
		4 -- 7 [label=8]
		4 -- 8 [label=9]
		4 -- 9 [label=3]
		4 -- 10 [label=8]
		4 -- 11 [label=6]
		4 -- 12 [label=7]
		4 -- 13 [label=8]
		4 -- 14 [label=0]
		5 -- 6 [label=9]
		5 -- 7 [label=1]
		5 -- 8 [label=3]
		5 -- 9 [label=6]
		5 -- 10 [label=7]
		5 -- 11 [label=0]
		5 -- 12 [label=5]
		5 -- 13 [label=3]
		5 -- 14 [label=0]
		6 -- 7 [label=6]
		6 -- 8 [label=1]
		6 -- 9 [label=8]
		6 -- 10 [label=4]
		6 -- 11 [label=8]
		6 -- 12 [label=8]
		6 -- 13 [label=3]
		6 -- 14 [label=2]
		7 -- 8 [label=3]
		7 -- 9 [label=5]
		7 -- 10 [label=3]
		7 -- 11 [label=3]
		7 -- 12 [label=9]
		7 -- 13 [label=7]
		7 -- 14 [label=1]
		8 -- 9 [label=6]
		8 -- 10 [label=1]
		8 -- 11 [label=4]
		8 -- 12 [label=2]
		8 -- 13 [label=4]
		8 -- 14 [label=6]
		9 -- 10 [label=4]
		9 -- 11 [label=3]
		9 -- 12 [label=5]
		9 -- 13 [label=7]
		9 -- 14 [label=9]
		10 -- 11 [label=1]
		10 -- 12 [label=5]
		10 -- 13 [label=7]
		10 -- 14 [label=3]
		11 -- 12 [label=7]
		11 -- 13 [label=6]
		11 -- 14 [label=8]
		12 -- 13 [label=3]
		12 -- 14 [label=9]
		13 -- 14 [label=2]
}